treewidth/data/SzekeresSnarkGraph.gr
p tw 50 75
1 47
1 50
1 5
2 8
2 11
2 15
13 18
13 21
13 25
24 28
24 31
24 34
35 38
35 41
35 44
46 47
46 3
46 16
47 48
48 49
48 33
49 50
49 6
50 3
3 4
4 5
4 19
5 6
6 37
7 8
7 12
7 26
8 9
9 10
9 43
10 11
10 16
11 12
12 14
14 15
14 29
15 16
17 18
17 22
17 36
18 19
19 20
20 21
20 26
21 22
22 23
23 25
23 39
25 26
27 28
27 32
27 45
28 29
29 30
30 31
30 36
31 32
32 33
33 34
34 36
37 38
37 42
38 39
39 40
40 41
40 45
41 42
42 43
43 44
44 45
