treewidth/data/SzekeresSnarkGraph.td
c width = 7, time = 3.176570
s td 23 8 50
b 1 35 38 40 41 42 44
b 2 7 33 36 38 40 42 44 46
b 3 4 7 33 36 38 40 42 46
b 4 4 5 33 38 42 46 47 49
b 5 1 3 4 5 46 47 49 50
b 6 5 6 37 38 42 49
b 7 33 47 48 49
b 8 4 7 20 22 25 36 38 40
b 9 4 18 20 21 22 25 36
b 10 13 18 21 25
b 11 17 18 22 36
b 12 4 18 19 20
b 13 22 23 25 38 39 40
b 14 7 20 25 26
b 15 7 14 33 36 40 42 44 46
b 16 7 8 10 14 15 42 44 46
b 17 2 7 8 10 11 12 14 15
b 18 8 9 10 42 43 44
b 19 10 15 16 46
b 20 14 28 31 32 33 36 40 44
b 21 24 28 31 33 34 36
b 22 27 28 32 40 44 45
b 23 14 28 29 30 31 36
4 5
4 6
4 7
3 4
9 10
9 11
9 12
8 9
8 13
8 14
3 8
2 3
16 17
16 18
16 19
15 16
20 21
20 22
20 23
15 20
2 15
1 2
